NAME : LPS-n29-m136
COMMENT : (Lartu-Peter-Santi Plot, instance 10536 out of 39200. 29 customers.)
TYPE : CVRP
DIMENSION : 29
EDGE_WEIGHT_TYPE : EUC_2D
CAPACITY : 108
NODE_COORD_SECTION
 1 40 34
 2 1 73
 3 72 11
 4 17 53
 5 55 51
 6 63 89
 7 33 75
 8 82 84
 9 73 64
 10 37 22
 11 39 0
 12 61 8
 13 19 90
 14 72 69
 15 71 20
 16 15 47
 17 74 3
 18 34 37
 19 51 91
 20 51 77
 21 23 40
 22 93 46
 23 96 15
 24 63 54
 25 4 88
 26 57 69
 27 50 73
 28 12 31
 29 10 82
DEMAND_SECTION
1 0
2 45
3 18
4 96
5 58
6 85
7 88
8 5
9 86
10 13
11 54
12 89
13 59
14 79
15 58
16 87
17 50
18 37
19 34
20 80
21 8
22 78
23 40
24 106
25 53
26 105
27 101
28 50
29 81
DEPOT_SECTION
 1
 -1
EOF
